
Gurobi 9.5.0 (win64) logging started Tue Dec  7 11:49:47 2021

Set parameter LogFile to value "../results/logs/log_2021_12_07_11_49.csv_30_41.log"
Set parameter Method to value 3
Gurobi Optimizer version 9.5.0 build v9.5.0rc5 (win64)
Thread count: 6 physical cores, 12 logical processors, using up to 12 threads
Optimize a model with 25 rows, 230 columns and 1471 nonzeros
Model fingerprint: 0x74b3398c
Variable types: 115 continuous, 115 integer (115 binary)
Coefficient statistics:
  Matrix range     [1e+00, 3e+01]
  Objective range  [1e+00, 1e+00]
  Bounds range     [1e+00, 1e+00]
  RHS range        [1e+00, 4e+01]
Found heuristic solution: objective -0.0000000
Presolve removed 15 rows and 205 columns
Presolve time: 0.00s
Presolved: 10 rows, 25 columns, 120 nonzeros
Extracted 7 lazy constraints
Variable types: 17 continuous, 8 integer (8 binary)

Root relaxation: objective 8.000000e+00, 1 iterations, 0.00 seconds (0.00 work units)

    Nodes    |    Current Node    |     Objective Bounds      |     Work
 Expl Unexpl |  Obj  Depth IntInf | Incumbent    BestBd   Gap | It/Node Time

     0     0    7.09575    0    4   -0.00000    7.09575      -     -    0s
H    0     0                       3.0000000    7.09575   137%     -    0s
     0     0    6.57073    0    6    3.00000    6.57073   119%     -    0s
H    0     0                       6.0000000    6.57073  9.51%     -    0s

Cutting planes:
  Gomory: 5
  MIR: 11
  RLT: 1
  Lazy constraints: 7

Explored 1 nodes (39 simplex iterations) in 0.01 seconds (0.00 work units)
Thread count was 12 (of 12 available processors)

Solution count 3: 6 3 -0 

Optimal solution found (tolerance 1.00e-04)
Best objective 6.000000000000e+00, best bound 6.000000000000e+00, gap 0.0000%
